networks/zoo_78_595/zoo_78_595.txt
OKAY
Number of groups: 63
Flow 13: {29 14 0} {14 60 1} 
Flow 14: {25 15 0} {15 61 1} 
Flow 30: {1 4 0} {4 32 1} 
Flow 32: {2 3 0} 
Flow 47: {2 23 0} {23 24 1} 
Flow 51: {2 1 0} {1 29 1} 
Flow 56: {3 2 0} {2 48 1} 
Flow 65: {3 23 0} {23 69 1} 
Flow 68: {3 1 0} {1 30 1} 
Flow 85: {4 31 0} {31 17 1} {17 20 2} {20 66 3} 
Flow 113: {6 10 0} {10 17 1} {17 63 2} 
Flow 134: {7 13 0} {13 26 1} {26 16 2} {16 62 3} 
Flow 137: {7 5 0} {5 6 1} {6 19 2} {19 65 3} 
Flow 140: {7 10 0} {10 1 1} {1 23 2} 
Flow 155: {8 10 0} {10 56 1} 
Flow 156: {8 13 0} {13 18 1} {18 12 2} {12 58 3} 
Flow 173: {9 6 0} {6 13 1} 
Flow 179: {9 10 0} 
Flow 232: {14 29 0} {29 18 1} 
Flow 241: {16 17 0} {17 12 1} 
Flow 260: {5 51 0} 
Flow 285: {18 29 0} {29 1 1} {1 47 2} 
Flow 297: {18 16 0} {16 22 1} {22 68 2} 
Flow 299: {18 30 0} {30 24 1} {24 70 2} 
Flow 300: {18 26 0} {26 25 1} {25 71 2} 
Flow 302: {18 17 0} {17 28 1} 
Flow 305: {18 31 0} 
Flow 312: {19 6 0} {6 5 1} {5 7 2} {7 53 3} 
Flow 336: {20 17 0} {17 18 1} {18 64 2} 
Flow 346: {21 17 0} {17 10 1} {10 6 2} {6 52 3} 
Flow 353: {21 16 0} {16 26 1} {26 72 2} 
Flow 360: {22 17 0} {17 31 1} {31 4 2} {4 50 3} 
Flow 366: {22 16 0} {16 18 1} 
Flow 372: {17 29 0} {29 32 1} {32 78 2} 
Flow 381: {23 1 2} {1 10 3} {10 9 4} 
Flow 383: {26 11 0} {11 57 1} 
Flow 392: {23 29 0} {29 17 1} {17 22 2} 
Flow 403: {24 23 0} {23 2 1} 
Flow 404: {23 3 0} {3 49 1} 
Flow 411: {24 30 0} {30 18 1} {18 13 2} {13 59 3} 
Flow 428: {25 26 0} {26 13 1} {13 8 2} {8 54 3} 
Flow 441: {13 4 0} {4 1 1} {1 2 2} 
Flow 447: {13 6 0} {6 9 1} {9 55 2} 
Flow 464: {26 17 0} {17 30 1} 
Flow 472: {27 26 0} {26 18 1} 
Flow 483: {28 17 0} {17 16 1} 
Flow 486: {28 29 0} {29 23 1} 
Flow 498: {10 7 0} 
Flow 499: {10 8 0} 
Flow 518: {29 30 0} {30 76 1} 
Flow 519: {29 31 0} {31 77 1} 
Flow 542: {30 17 0} {17 26 1} {26 27 2} {27 73 3} 
Flow 544: {30 29 0} 
Flow 545: {30 1 0} {1 31 1} 
Flow 546: {30 23 0} {23 32 1} 
Flow 549: {31 1 3} {1 3 4} 
Flow 559: {31 18 0} 
Flow 569: {31 29 0} {29 75 1} 
Flow 571: {31 32 0} 
Flow 577: {32 4 0} {4 13 1} {13 7 2} 
Flow 592: {32 29 0} {29 28 1} {28 74 2} 
Flow 594: {32 23 0} {23 30 1} 
Flow 595: {32 31 0} 
Time taken running everything: 1 seconds
